results/res_prop_muc/res_Cimatti_mathsat_cores/QF_UF/SEQ042_size3.smt.smt2.out

real	0m0.166s
user	0m0.091s
sys	0m0.006s
